data/processed_heuristic-threshold/instances/1/9/ds_807_courier_1656/pairwise.tsp
NAME: ds_807_courier_1656
TYPE: TSP
COMMENT: nil
DIMENSION: 10
EDGE_WEIGHT_TYPE: EXPLICIT
EDGE_WEIGHT_FORMAT: FULL_MATRIX
EDGE_WEIGHT_SECTION
9999 2981 3287 2437 3038 4085 4109 3175 4212 3958 
2981 9999 308 785 526 1205 1138 699 1477 1036 
3287 308 9999 1020 572 924 830 749 1233 745 
2437 785 1020 9999 609 1664 1755 1396 1777 1558 
3038 526 572 609 9999 1055 1169 1220 1192 954 
4085 1205 924 1664 1055 9999 396 1570 403 197 
4109 1138 830 1755 1169 396 9999 1324 791 283 
3175 699 749 1396 1220 1570 1324 9999 1931 1373 
4212 1477 1233 1777 1192 403 791 1931 9999 587 
3958 1036 745 1558 954 197 283 1373 587 9999 
