data/processed_heuristic-threshold/instances/1/9/ds_807_courier_1656/pairwise.sol
10
0 3 4 8 5 9 6 2 1 7 
